c "214176.clq"
p edge 150 584
e 1 5
e 1 81
e 2 5
e 2 6
e 2 7
e 2 8
e 2 9
e 2 10
e 2 11
e 2 12
e 2 14
e 2 16
e 2 17
e 2 19
e 2 22
e 2 25
e 2 29
e 2 32
e 2 33
e 2 34
e 2 39
e 2 40
e 2 43
e 2 71
e 2 75
e 2 109
e 2 135
e 2 137
e 2 148
e 3 5
e 3 6
e 3 7
e 3 9
e 3 16
e 3 23
e 3 39
e 3 45
e 3 51
e 3 86
e 3 132
e 4 5
e 4 6
e 4 8
e 4 10
e 4 12
e 4 13
e 4 15
e 4 16
e 4 18
e 4 19
e 4 20
e 4 21
e 4 22
e 4 24
e 4 27
e 4 36
e 4 42
e 4 50
e 4 51
e 4 52
e 4 54
e 4 59
e 4 62
e 4 82
e 4 87
e 4 92
e 4 108
e 4 127
e 4 134
e 5 6
e 5 7
e 5 8
e 5 9
e 5 13
e 5 14
e 5 17
e 5 22
e 5 31
e 5 34
e 5 35
e 5 36
e 5 40
e 5 44
e 5 45
e 5 46
e 5 53
e 5 65
e 5 68
e 5 75
e 5 79
e 5 82
e 5 83
e 5 101
e 5 127
e 5 133
e 5 140
e 5 149
e 6 7
e 6 8
e 6 9
e 6 10
e 6 11
e 6 12
e 6 13
e 6 14
e 6 15
e 6 19
e 6 20
e 6 23
e 6 26
e 6 27
e 6 28
e 6 29
e 6 30
e 6 35
e 6 36
e 6 40
e 6 44
e 6 55
e 6 56
e 6 57
e 6 63
e 6 64
e 6 67
e 6 71
e 6 78
e 6 79
e 6 87
e 6 88
e 6 94
e 6 102
e 6 104
e 6 111
e 6 112
e 6 122
e 6 125
e 6 136
e 6 144
e 6 147
e 7 17
e 7 25
e 7 54
e 7 86
e 7 117
e 8 11
e 8 30
e 8 33
e 8 38
e 8 51
e 8 59
e 8 65
e 8 89
e 8 105
e 8 126
e 8 133
e 8 150
e 9 10
e 9 11
e 9 13
e 9 18
e 9 24
e 9 32
e 9 37
e 9 49
e 9 67
e 9 76
e 9 90
e 9 94
e 9 104
e 9 109
e 9 110
e 9 145
e 9 148
e 10 18
e 10 21
e 10 24
e 10 27
e 10 31
e 10 33
e 10 39
e 10 41
e 10 42
e 10 81
e 10 85
e 10 103
e 10 110
e 10 120
e 10 121
e 10 135
e 11 12
e 11 14
e 11 17
e 11 21
e 11 25
e 11 26
e 11 28
e 11 32
e 11 41
e 11 44
e 11 47
e 11 58
e 11 61
e 11 66
e 11 72
e 11 87
e 11 96
e 11 105
e 11 115
e 11 122
e 11 141
e 11 149
e 12 15
e 12 27
e 12 34
e 12 42
e 12 53
e 12 64
e 12 74
e 12 101
e 12 129
e 12 131
e 12 146
e 12 148
e 13 31
e 13 32
e 13 39
e 13 43
e 13 58
e 13 61
e 13 77
e 14 15
e 14 16
e 14 20
e 14 38
e 14 49
e 14 70
e 14 72
e 14 74
e 14 100
e 14 110
e 14 129
e 15 22
e 15 26
e 15 28
e 15 29
e 15 30
e 15 35
e 15 46
e 15 69
e 15 89
e 15 98
e 15 107
e 15 116
e 15 118
e 16 21
e 16 23
e 16 37
e 16 41
e 16 42
e 16 48
e 16 50
e 16 55
e 16 57
e 16 63
e 16 83
e 16 84
e 16 100
e 16 109
e 16 118
e 16 121
e 16 129
e 16 141
e 17 18
e 17 20
e 17 26
e 17 48
e 17 56
e 17 68
e 17 76
e 17 108
e 17 114
e 17 128
e 17 149
e 18 19
e 18 25
e 18 37
e 18 49
e 18 52
e 18 67
e 18 95
e 18 121
e 18 126
e 19 23
e 19 34
e 19 40
e 19 52
e 19 77
e 19 80
e 19 93
e 19 96
e 19 116
e 19 131
e 20 30
e 20 36
e 20 37
e 20 47
e 20 53
e 21 29
e 21 33
e 21 38
e 21 50
e 21 54
e 21 64
e 21 66
e 21 76
e 21 90
e 21 92
e 21 93
e 21 100
e 21 105
e 21 107
e 21 113
e 21 115
e 21 123
e 21 138
e 22 24
e 22 57
e 22 59
e 22 60
e 22 73
e 22 78
e 22 86
e 22 94
e 22 115
e 23 58
e 23 63
e 23 113
e 23 127
e 23 128
e 23 149
e 24 51
e 24 114
e 25 28
e 25 43
e 25 46
e 25 71
e 25 84
e 25 108
e 25 116
e 25 118
e 25 120
e 25 142
e 27 43
e 27 45
e 27 58
e 27 70
e 27 78
e 27 79
e 27 89
e 27 97
e 27 102
e 28 65
e 28 70
e 28 95
e 28 97
e 28 108
e 28 136
e 29 46
e 29 60
e 29 80
e 29 83
e 29 93
e 29 95
e 29 100
e 29 101
e 29 114
e 29 123
e 30 31
e 30 35
e 30 66
e 30 96
e 30 99
e 30 139
e 30 142
e 31 48
e 31 74
e 31 99
e 31 121
e 32 47
e 33 44
e 33 47
e 33 139
e 33 150
e 34 38
e 34 53
e 34 57
e 34 73
e 34 124
e 35 133
e 36 50
e 36 88
e 36 131
e 37 41
e 37 71
e 37 113
e 38 45
e 38 140
e 39 59
e 40 130
e 41 60
e 41 78
e 41 80
e 41 90
e 41 93
e 41 103
e 41 106
e 41 124
e 41 136
e 41 138
e 42 62
e 42 72
e 42 74
e 42 75
e 42 82
e 42 97
e 42 101
e 42 143
e 43 68
e 43 112
e 43 134
e 44 49
e 44 60
e 44 73
e 44 76
e 44 81
e 44 89
e 44 94
e 44 104
e 44 136
e 44 143
e 45 54
e 45 70
e 45 87
e 45 99
e 45 125
e 45 134
e 46 55
e 46 62
e 46 63
e 46 91
e 47 48
e 47 134
e 48 56
e 48 130
e 49 55
e 49 61
e 49 77
e 49 80
e 49 90
e 49 95
e 49 111
e 49 144
e 50 67
e 50 77
e 50 79
e 50 92
e 50 117
e 50 123
e 50 141
e 50 146
e 51 52
e 51 62
e 51 65
e 52 56
e 52 72
e 52 82
e 52 91
e 52 103
e 52 112
e 52 122
e 52 130
e 52 150
e 53 125
e 53 129
e 54 119
e 55 69
e 55 97
e 55 102
e 55 105
e 55 112
e 55 115
e 55 116
e 55 119
e 55 126
e 55 137
e 56 111
e 56 140
e 57 85
e 57 102
e 58 61
e 58 64
e 58 114
e 58 123
e 58 132
e 59 83
e 59 106
e 59 120
e 59 132
e 60 142
e 61 66
e 61 69
e 61 81
e 61 98
e 61 133
e 62 68
e 62 139
e 62 147
e 63 69
e 63 103
e 65 88
e 65 98
e 65 104
e 65 124
e 66 73
e 67 137
e 69 117
e 70 91
e 70 138
e 72 84
e 72 86
e 72 132
e 72 135
e 73 75
e 74 85
e 74 124
e 75 98
e 75 99
e 76 88
e 76 146
e 77 110
e 78 85
e 81 119
e 81 137
e 81 148
e 82 92
e 83 84
e 83 106
e 84 91
e 84 126
e 88 119
e 91 118
e 92 117
e 93 139
e 94 111
e 95 96
e 95 107
e 95 125
e 97 106
e 99 147
e 100 107
e 102 140
e 102 146
e 103 113
e 103 122
e 103 147
e 108 109
e 108 138
e 110 144
e 113 130
e 116 150
e 117 120
e 117 127
e 118 135
e 119 142
e 120 145
e 121 128
e 122 143
e 122 144
e 124 128
e 125 143
e 126 131
e 126 145
e 127 141
e 139 145
